p tw 20 53
0 1
0 6
0 3
0 10
0 17
1 12
1 4
1 11
1 14
1 9
1 18
2 3
2 7
2 4
3 9
3 19
3 15
3 6
4 5
4 17
4 7
4 12
4 6
4 15
4 19
5 8
5 13
5 9
5 17
5 18
5 19
5 6
5 11
6 7
6 17
7 10
7 12
7 17
7 9
8 11
8 18
8 19
9 14
9 18
10 16
10 18
12 14
12 18
12 17
13 16
14 18
15 16
16 17
